467 468 477 
497 498 507 
527 528 537 
557 558 567 
587 588 597 
617 618 627 
647 648 657 
677 678 687 
707 708 717 
738 739 750 
768 769 780 
798 799 810 
828 829 840 
858 859 870 
888 889 900 
918 919 930 
948 949 960 
978 979 990 
1008 1009 1020 
1038 1039 1050 
1068 1069 1080 
1098 1099 1108 
1128 1129 1138 
1158 1159 1168 
1188 1189 1198 
1218 1219 1228 
1248 1249 1258 
1278 1279 1288 
1308 1309 1318 
1338 1339 1348 
1368 1369 1378 
1398 1399 1408 
1428 1429 1438 
